RT is False
Default write of storage_offers_DA.csv just to have a file (but constraint should be inactive)
Reading model...
...model read.
creating competitive generators file...
...competitive generators recorded.
Loading data...
.. day-ahead data read.
Compiling instance...
...instance created.
Creating Offer Mitigation (model will solve as dispatch if TRUE)...
NOTE: storage offers will not be mitigated
...storage offer mitigation file created
Converting model to MPEC...
...converted
NOTE: initial MIP solve with only storage competitive to get feasible solution
Solving...

Welcome to IBM(R) ILOG(R) CPLEX(R) Interactive Optimizer 12.9.0.0
  with Simplex, Mixed Integer & Barrier Optimizers
5725-A06 5725-A29 5724-Y48 5724-Y49 5724-Y54 5724-Y55 5655-Y21
Copyright IBM Corp. 1988, 2019.  All Rights Reserved.

Type 'help' for a list of available commands.
Type 'help' followed by a command name for more
information on commands.

CPLEX> Logfile 'cplex.log' closed.
Logfile 'C:\Users\llavin\Desktop\test919\logs\tmpgf3oewpi.cplex.log' open.
CPLEX> New value for parallel optimization mode: -1
CPLEX> New value for mixed integer optimality gap tolerance: 0.01
CPLEX> New value for integrality tolerance: 1e-09
CPLEX> New value for feasibility tolerance: 0.01
CPLEX> New value for deterministic time limit in ticks: 75000
CPLEX> Problem 'C:\Users\llavin\Desktop\test919\logs\tmp1kanfpfr.pyomo.lp' read.
Read time = 0.23 sec. (14.73 ticks)
CPLEX> Problem name         : C:\Users\llavin\Desktop\test919\logs\tmp1kanfpfr.pyomo.lp
Objective sense      : Maximize
Variables            :   53805  [Nneg: 1,  Box: 22000,  Free: 4464,
                                 Binary: 27340]
Objective nonzeros   :    9063
Linear constraints   :  123205  [Less: 41346,  Greater: 59096,  Equal: 22763]
  Nonzeros           :  291787
  RHS nonzeros       :   67525

Variables            : Min LB: -5000.000        Max UB: 1000000.       
Objective nonzeros   : Min   : 0.2000000        Max   : 2500.000       
Linear constraints   :
  Nonzeros           : Min   : 0.2000000        Max   : 1000000.       
  RHS nonzeros       : Min   : 0.2000000        Max   : 1000000.       
CPLEX> CPXPARAM_Parallel                                -1
CPXPARAM_Simplex_Tolerances_Feasibility          0.01
CPXPARAM_DetTimeLimit                            75000
CPXPARAM_MIP_Tolerances_MIPGap                   0.01
CPXPARAM_MIP_Tolerances_Integrality              1.0000000000000001e-09
Tried aggregator 3 times.
MIP Presolve eliminated 88446 rows and 18796 columns.
MIP Presolve added 3414 rows and 0 columns.
MIP Presolve modified 24935 coefficients.
Aggregator did 12998 substitutions.
Reduced MIP has 25175 rows, 21481 columns, and 71732 nonzeros.
Reduced MIP has 8495 binaries, 0 generals, 0 SOSs, and 0 indicators.
Presolve time = 0.30 sec. (173.74 ticks)
Probing fixed 370 vars, tightened 2884 bounds.
Probing time = 1.22 sec. (899.20 ticks)
Tried aggregator 2 times.
MIP Presolve eliminated 838 rows and 741 columns.
MIP Presolve modified 2247 coefficients.
Aggregator did 39 substitutions.
Reduced MIP has 24298 rows, 20701 columns, and 69193 nonzeros.
Reduced MIP has 8125 binaries, 0 generals, 0 SOSs, and 0 indicators.
Presolve time = 0.11 sec. (72.04 ticks)
Probing time = 0.03 sec. (15.62 ticks)
Clique table members: 6506.
MIP emphasis: balance optimality and feasibility.
MIP search method: dynamic search.
Parallel mode: opportunistic, using up to 32 threads.
Root relaxation solution time = 0.41 sec. (498.00 ticks)

        Nodes                                         Cuts/
   Node  Left     Objective  IInf  Best Integer    Best Bound    ItCnt     Gap

      0     0        0.0000   637                      0.0000     5480         
*     0+    0                            0.0000        0.0000             0.00%
      0     0        cutoff              0.0000        0.0000     5480    0.00%
Elapsed time = 3.11 sec. (2162.87 ticks, tree = 0.01 MB, solutions = 1)

Root node processing (before b&c):
  Real time             =    3.13 sec. (2164.70 ticks)
Parallel b&c, 32 threads:
  Real time             =    0.00 sec. (0.00 ticks)
  Sync time (average)   =    0.00 sec.
  Wait time (average)   =    0.00 sec.
                          ------------
Total (root+branch&cut) =    3.13 sec. (2164.70 ticks)

Solution pool: 1 solution saved.

MIP - Integer optimal solution:  Objective =  8.5856299847e-10
Solution time =    3.16 sec.  Iterations = 5480  Nodes = 0
Deterministic time = 2164.86 ticks  (685.95 ticks/sec)

CPLEX> Incumbent solution written to file 'C:\Users\llavin\Desktop\test919\logs\tmptqfmu2p2.cplex.sol'.
CPLEX> NOTE: no warmstart specified for MIP iteration, default behavior is true
NOTE: resolving with all competitive generators using storage-only solution to warmstart
Solving...

Welcome to IBM(R) ILOG(R) CPLEX(R) Interactive Optimizer 12.9.0.0
  with Simplex, Mixed Integer & Barrier Optimizers
5725-A06 5725-A29 5724-Y48 5724-Y49 5724-Y54 5724-Y55 5655-Y21
Copyright IBM Corp. 1988, 2019.  All Rights Reserved.

Type 'help' for a list of available commands.
Type 'help' followed by a command name for more
information on commands.

CPLEX> Logfile 'cplex.log' closed.
Logfile 'C:\Users\llavin\Desktop\test919\logs\tmptey59yi3.cplex.log' open.
CPLEX> New value for parallel optimization mode: -1
CPLEX> New value for mixed integer optimality gap tolerance: 0.01
CPLEX> New value for integrality tolerance: 1e-09
CPLEX> New value for feasibility tolerance: 0.01
CPLEX> New value for deterministic time limit in ticks: 75000
CPLEX> Problem 'C:\Users\llavin\Desktop\test919\logs\tmppi1eff63.pyomo.lp' read.
Read time = 0.25 sec. (14.75 ticks)
CPLEX> MIP start file 'C:\Users\llavin\Desktop\test919\logs\tmp5x9e67tl.cplex.mst' read.
CPLEX> Problem name         : C:\Users\llavin\Desktop\test919\logs\tmppi1eff63.pyomo.lp
Objective sense      : Maximize
Variables            :   54525  [Nneg: 1,  Box: 22720,  Free: 4464,
                                 Binary: 27340]
Objective nonzeros   :    9759
Linear constraints   :  123205  [Less: 41346,  Greater: 59096,  Equal: 22763]
  Nonzeros           :  291787
  RHS nonzeros       :   67525

Variables            : Min LB: -5000.000        Max UB: 1000000.       
Objective nonzeros   : Min   : 0.2000000        Max   : 2500.000       
Linear constraints   :
  Nonzeros           : Min   : 0.2000000        Max   : 1000000.       
  RHS nonzeros       : Min   : 0.2000000        Max   : 1000000.       
CPLEX> CPXPARAM_Parallel                                -1
CPXPARAM_Simplex_Tolerances_Feasibility          0.01
CPXPARAM_DetTimeLimit                            75000
CPXPARAM_MIP_Tolerances_MIPGap                   0.01
CPXPARAM_MIP_Tolerances_Integrality              1.0000000000000001e-09
Warning:  No solution found from 1 MIP starts.
Retaining values of one MIP start for possible repair.
Tried aggregator 3 times.
MIP Presolve eliminated 88446 rows and 19516 columns.
MIP Presolve added 3414 rows and 0 columns.
MIP Presolve modified 24935 coefficients.
Aggregator did 12998 substitutions.
Reduced MIP has 25175 rows, 21481 columns, and 71732 nonzeros.
Reduced MIP has 8495 binaries, 0 generals, 0 SOSs, and 0 indicators.
Presolve time = 0.30 sec. (174.10 ticks)
Probing fixed 370 vars, tightened 2884 bounds.
Probing time = 1.22 sec. (899.20 ticks)
Tried aggregator 2 times.
MIP Presolve eliminated 838 rows and 741 columns.
MIP Presolve modified 2247 coefficients.
Aggregator did 39 substitutions.
Reduced MIP has 24298 rows, 20701 columns, and 69193 nonzeros.
Reduced MIP has 8125 binaries, 0 generals, 0 SOSs, and 0 indicators.
Presolve time = 0.11 sec. (72.04 ticks)
Probing time = 0.03 sec. (15.62 ticks)
Clique table members: 6506.
MIP emphasis: balance optimality and feasibility.
MIP search method: dynamic search.
Parallel mode: opportunistic, using up to 32 threads.
Root relaxation solution time = 0.33 sec. (250.37 ticks)

        Nodes                                         Cuts/
   Node  Left     Objective  IInf  Best Integer    Best Bound    ItCnt     Gap

      0     0    94658.0001  1684                  94658.0001     5499         
      0     0    90851.6999   602                   Cuts: 552     5787         
      0     0    90409.8028   537                   Cuts: 140     5885         
      0     0    90394.6928   521                    Cuts: 83     5938         
      0     0    89676.1611   471                    Cuts: 77     6018         
      0     0    89676.1611   450                    Cuts: 61     6061         
      0     0    89676.1611   444                    Cuts: 60     6091         
      0     0    89676.1611   423                    Cuts: 58     6116         
      0     0    80832.2713   400                    Cuts: 52     6266         
      0     0    79181.5887   378                    Cuts: 65     6293         
      0     0    77226.7997   364                    Cuts: 49     6316         
      0     0    71619.6254   355                    Cuts: 59     6364         
      0     0    71563.1353   343                    Cuts: 73     6383         
      0     0    71548.7386   330                    Cuts: 63     6397         
      0     0    71546.2246   323                    Cuts: 52     6404         
      0     0    71546.2246   318                    Cuts: 49     6409         
Repair heuristic found nothing.
      0     3    54404.9563   297                  58372.3765     6416         
Elapsed time = 12.80 sec. (7724.91 ticks, tree = 0.02 MB, solutions = 0)
    475   107    -1253.4424   250                  28490.1518     8651         
   1201   286    -2859.4923   237                  28490.1518    15422         
   2000   621   -13464.0450   211                  28490.1518    19213         
   2975   914     6606.0435   197                  28490.1518    20889         
   3888  2501     3288.4565   203                  28490.1518    26968         
   4852  2261      922.6648   233                  28490.1518    25355         
   5649  3099   -18554.7210   185                  28490.1518    27094         
   6373  4967    -7880.1724   188                  28490.1518    29571         
   7172  5492   -18554.7210   164                  28490.1518    31336         
   8939  7454      167.2402   151                  28490.1518    42713         
Elapsed time = 29.48 sec. (10826.71 ticks, tree = 59.37 MB, solutions = 0)
  10103  7137    23657.0327   230                  28490.1518    37892         
* 10586+ 6183                        -5856.6306    28490.1518           586.46%
  11279  7764     6158.1126   184    -5856.6306    28490.1518    43964  586.46%
  12271  8316     1407.3496   187    -5856.6306    28490.1518    50845  586.46%
  13133  6117     7776.6611    78    -5856.6306    28490.1518    54180  586.46%
  13940  8608    11822.4647    79    -5856.6306    28490.1518    52550  586.46%
  14523  5969    19147.4691   215    -5856.6306    28490.1518    54716  586.46%
  15044  6666    12541.4256    38    -5856.6306    28490.1518    56813  586.46%
  15245  6117    12541.4256    83    -5856.6306    28490.1518    54978  586.46%
  15390  6190        cutoff          -5856.6306    28490.1518    55085  586.46%
Elapsed time = 42.91 sec. (20276.15 ticks, tree = 48.31 MB, solutions = 1)
  15402  5944        cutoff          -5856.6306    28490.1518    54629  586.46%
  15403 11097        cutoff          -5856.6306     6218.1731    87356  206.17%
* 15411+    3                            0.0000        0.0000           -32.90%
* 15412     7      integral     0        0.0000        0.0000    87417  -32.92%
* 15421     6      integral     0        0.0000        0.0000    87416  -32.92%

GUB cover cuts applied:  1
Cover cuts applied:  3
Implied bound cuts applied:  3
Flow cuts applied:  220
Mixed integer rounding cuts applied:  19
Gomory fractional cuts applied:  46

Root node processing (before b&c):
  Real time             =   11.63 sec. (7704.02 ticks)
Parallel b&c, 32 threads:
  Real time             =   40.94 sec. (18594.77 ticks)
  Sync time (average)   =    1.14 sec.
  Wait time (average)   =    0.16 sec.
                          ------------
Total (root+branch&cut) =   52.56 sec. (26298.79 ticks)

Solution pool: 4 solutions saved.

MIP - Integer optimal solution:  Objective =  9.8516466096e-08
Solution time =   52.58 sec.  Iterations = 87503  Nodes = 15422
Deterministic time = 26298.95 ticks  (500.19 ticks/sec)

CPLEX> Incumbent solution written to file 'C:\Users\llavin\Desktop\test919\logs\tmptihjbm1c.cplex.sol'.
CPLEX> Exporting results... 
